50 
300 
-0.5 0 0 0
0.5 0 0 -78
-7 -7 35 -21
-7 -5 35 -15
-7 -3 -35 -85
-7 -1 -35 -60
-7 1 -35 -63
-7 3 35 -20
-7 5 -35 -123
-7 7 -35 -83
-5 -7 35 -20
-5 -5 25 -13
-5 -3 -25 -109
-5 -1 25 -16
-5 1 25 -10
-5 3 -25 -125
-5 5 -25 -117
-5 7 -35 -132
-3 -7 35 -20
-3 -5 -25 -112
-3 -3 15 -10
-3 -1 -15 -66
-3 1 15 -12
-3 3 15 -17
-3 5 -25 -107
-3 7 -35 -110
-1 -7 35 -22
-1 -5 -25 -98
-1 -3 -15 -80
-1 -1 5 -24
-1 1 -5 -83
-1 3 -15 -88
-1 5 -25 -72
-1 7 35 -28
1 -7 -35 -118
1 -5 -25 -109
1 -3 15 -17
1 -1 -5 -83
1 1 -5 -77
1 3 15 -14
1 5 25 -14
1 7 35 -19
3 -7 35 -16
3 -5 -25 -114
3 -3 -15 -108
3 -1 15 -28
3 1 -15 -89
3 3 -15 -134
3 5 -25 -73
3 7 -35 -70
5 -7 -35 -128
5 -5 25 -17
5 -3 -25 -85
5 -1 25 -16
5 1 -25 -72
5 3 -25 -118
5 5 -25 -98
5 7 -35 -74
7 -7 -35 -71
7 -5 -35 -111
7 -3 -35 -127
7 -1 -35 -119
7 1 -35 -137
7 3 35 -13
7 5 -35 -117
7 7 -35 -90
